\ENCODING=ISO-8859-1
\Problem name: IloCplex

Minimize
 obj1: 0.0186567164179104 sl_0 + 0.0186567164179104 su_0
       + 0.0116279069767442 sl_1 + 0.0116279069767442 su_1 + 0.025 sl_2
       + 0.025 su_2 + 0.3125 sl_3 + 0.3125 su_3 + 0.166666666666667 sl_4
       + 0.166666666666667 su_4 + 0.00342465753424658 sl_5
       + 0.00342465753424658 su_5 + 0.00104384133611691 sl_6
       + 0.00104384133611691 su_6
Subject To
 c1: sl_0 - su_0 + 9 x_1 + 13 x_2 + 14 x_3 + 17 x_4 + 18 x_5 + 19 x_6 + 23 x_7
     + 21 x_8  = 53.6
 c2: sl_1 - su_1 + 9 x_9 + 11 x_10 + 17 x_11 + 18 x_12 + 18 x_13 + 17 x_14
     + 22 x_15 + 24 x_16 + 36 x_17 + 43 x_18  = 86
 c3: sl_2 - su_2 + 6 x_19 + 15 x_20 + 15 x_21 + 25 x_22 + 39 x_23  = 40
 c4: sl_3 - su_3 + x_1 + x_2 + x_3 + x_5 + x_6 + x_10 + x_15 + x_20  = 3.2
 c5: sl_4 - su_4 + x_4 + x_7 + x_8 + x_9 + x_11 + x_12 + x_13 + x_14 + x_16
     + x_17 + x_18 + x_19 + x_21 + x_22 + x_23  = 6
 c6: sl_5 - su_5 + 11 x_1 + 47 x_2 + 44 x_3 + 25 x_4 + 10 x_5 + 26 x_6 + 26 x_7
     + 54 x_8 + 18 x_9 + 51 x_10 + 20 x_11 + 105 x_12 + 7 x_13 + 16 x_14
     + 34 x_15 + 100 x_16 + 50 x_17 + 21 x_18 + 11 x_19 + 19 x_20 + 14 x_21
     + 10 x_22 + 11 x_23  = 292
 c7: sl_6 - su_6 + 34 x_1 + 411 x_2 + 82 x_3 + 157 x_4 + 5 x_5 + 183 x_6
     + 14 x_7 + 215 x_8 + 102 x_9 + 21 x_10 + 54 x_11 + 6 x_13 + 96 x_14
     + 118 x_15 + 112 x_16 + 535 x_17 + 8 x_18 + 53 x_19 + 28 x_20 + 69 x_21
     + 65 x_22 + 27 x_23  = 958
Bounds
 0 <= sl_0 <= 6.700000001
 0 <= su_0 <= 6.700000001
 0 <= sl_1 <= 10.750000001
 0 <= su_1 <= 10.750000001
 0 <= sl_2 <= 5.000000001
 0 <= su_2 <= 5.000000001
 0 <= sl_3 <= 0.400000001
 0 <= su_3 <= 0.400000001
 0 <= sl_4 <= 0.750000001
 0 <= su_4 <= 0.750000001
 0 <= sl_5 <= 36.500000001
 0 <= su_5 <= 36.500000001
 0 <= sl_6 <= 119.750000001
 0 <= su_6 <= 119.750000001
 0 <= x_1 <= 1
 0 <= x_2 <= 1
 0 <= x_3 <= 1
 0 <= x_4 <= 1
 0 <= x_5 <= 1
 0 <= x_6 <= 1
 0 <= x_7 <= 1
 0 <= x_8 <= 1
 0 <= x_9 <= 1
 0 <= x_10 <= 1
 0 <= x_11 <= 1
 0 <= x_12 <= 1
 0 <= x_13 <= 1
 0 <= x_14 <= 1
 0 <= x_15 <= 1
 0 <= x_16 <= 1
 0 <= x_17 <= 1
 0 <= x_18 <= 1
 0 <= x_19 <= 1
 0 <= x_20 <= 1
 0 <= x_21 <= 1
 0 <= x_22 <= 1
 0 <= x_23 <= 1
Binaries
 x_1  x_2  x_3  x_4  x_5  x_6  x_7  x_8  x_9  x_10  x_11  x_12  x_13  x_14 
 x_15  x_16  x_17  x_18  x_19  x_20  x_21  x_22  x_23 
End
